\ Model QCP
\ LP format - for model browsing. Use MPS format to capture full model detail.
Minimize
  z + 4 y
Subject To
 Cut_0: z + [ 0.0269642026964203 y ^2 ] >= 2630.511390051139
 Cut_1: z + [ 1.030896759608139 y ^2 ] >= 4942.581009796533
 Cut_2: z + [ 0.5664739884393061 y ^2 ] >= 3973.156069364161
Bounds
 2502 <= z <= 3355
 39.24283374069717 <= y <= 69.03622237637282
End
